321,406
698,430
786,551
804,575
727,548
639,672
435,745
342,745
435,745
641,486
727,548
452,721
141,406
300,25
453,332
613,273
681,226
817,139
464,-21
570,64
635,110
681,46
698,430
764,662
681,766
653,229
681,46
681,-134
570,64
494,311
453,332
282,535
616,820
681,766
838,891
639,672
450,860
635,264
654,353
613,273
653,229
1006,457
1137,554
1135,175
1137,554
